[TITLE]

[JUNCTIONS]
;ID                      Elevation       Demand Pattern                 
 J_A1_entry                         0               0                            ;
 J_A1                               0               0                            ;
 J_B1                               0               0                            ;
 J_B2                               0               0                            ;
 J_C2                               0               0                            ;
 J_D2                               0               0                            ;
 J_E2                               0               0                            ;
 J_B3                               0               0                            ;
 J_B4                               0               0                            ;
 J_B5                               0               0                            ;
 J_C5                               0               0                            ;
 J_D5                               0               0                            ;
 J_E5                               0               0                            ;
 J_E6                               0               0                            ;

[RESERVOIRS]
;ID                                   Head                  Pattern
 R_RES                   164.04199475                            ;

[TANKS]
;ID                              Elevation           Init Level            Min Level            Max Level             Diameter           Min Volume Volume Curve         Overflow            
 T_residential                      0               0               0    16.404199475     3.280839895               0                                             ;
 T_hospital                         0               0               0    16.404199475     3.280839895               0                                             ;
 T_industrial                       0               0               0    16.404199475     3.280839895               0                                             ;
 T_commercial                       0               0               0    16.404199475     3.280839895               0                                             ;

[PIPES]
;ID                   Node1                Node2                              Length             Diameter            Roughness           Minor Loss               Status
 P_reservoir_out      R_RES                J_A1_entry               328.0839895     5.905511811             120               0               Closed   ;
 P_entry_to_A1        J_A1_entry           J_A1                     32.80839895     5.905511811             120               0                 Open   ;
 P_1                  J_A1                 J_B1                     328.0839895     5.905511811             120               2                 Open   ;
 P_2                  J_A1                 T_residential            328.0839895    8.6614173228             150               0                 Open   ;
 P_3                  J_B1                 J_B2                     328.0839895     5.905511811             120               3                 Open   ;
 P_4                  J_B1                 J_A1_entry               328.0839895     5.905511811             120               0                 Open   ;
 P_5                  J_B2                 J_C2                     328.0839895     5.905511811             120               2                 Open   ;
 P_6                  J_B2                 J_B3                     328.0839895     5.905511811             120               2                 Open   ;
 P_7                  J_C2                 J_D2                     328.0839895     5.905511811             120             0.5                 Open   ;
 P_8                  J_D2                 J_E2                     328.0839895     5.905511811             120             0.5                 Open   ;
 P_9                  J_E2                 T_hospital               328.0839895    5.1181102362             110               2                 Open   ;
 P_10                 J_B3                 J_B4                     328.0839895     5.905511811             120             0.5                 Open   ;
 P_11                 J_B4                 J_B5                     328.0839895     5.905511811             120             0.5                 Open   ;
 P_12                 J_B5                 T_industrial             328.0839895    5.1181102362             110               2                 Open   ;
 P_13                 J_B5                 J_C5                     328.0839895     5.905511811             120               2                 Open   ;
 P_14                 J_C5                 J_D5                     328.0839895     5.905511811             120             0.5                 Open   ;
 P_15                 J_D5                 J_E5                     328.0839895     5.905511811             120             0.5                 Open   ;
 P_16                 J_E5                 J_E6                     328.0839895     5.905511811             120               3                 Open   ;
 P_17                 J_E6                 T_commercial             328.0839895    5.1181102362             110               2                 Open   ;

[PUMPS]
;ID                   Node1                Node2                Properties          

[VALVES]
;ID                   Node1                Node2                            Diameter Type              Setting           Minor Loss

[TAGS]
;type      name       tag       

[DEMANDS]
;ID        Demand     Pattern   

[STATUS]
;ID        Setting   

[PATTERNS]
;ID        Multipliers

[CURVES]
;ID         X-Value      Y-Value     

[CONTROLS]
Pipe P_reservoir_out Open AT TIME 0
Pipe P_reservoir_out Closed IF Tank T_residential above 16.371391076115486
Pipe P_reservoir_out Closed IF Tank T_hospital above 16.371391076115486
Pipe P_reservoir_out Closed IF Tank T_industrial above 16.371391076115486
Pipe P_reservoir_out Closed IF Tank T_commercial above 16.371391076115486

[RULES]

[ENERGY]
GLOBAL PRICE           0.0000

[EMITTERS]
;ID        Flow coefficient

[QUALITY]

[SOURCES]
;Node      Type       Quality    Pattern   

[REACTIONS]
;Type           Pipe/Tank               Coefficient

 ORDER BULK 1
 ORDER TANK 1
 ORDER WALL 1
 GLOBAL BULK 0.0000    
 GLOBAL WALL 0.0000    

[MIXING]
;Tank ID             Model Fraction

[TIMES]
DURATION             02:00:00
HYDRAULIC TIMESTEP   00:01:00
QUALITY TIMESTEP     00:06:00
PATTERN TIMESTEP     01:00:00
PATTERN START        00:00:00
REPORT TIMESTEP      00:01:00
REPORT START         00:00:00
START CLOCKTIME      00:00:00 AM
RULE TIMESTEP        00:06:00
STATISTIC            NONE      

[REPORT]

[OPTIONS]
UNITS                GPM                 
HEADLOSS             H-W                 
SPECIFIC GRAVITY     1
VISCOSITY            1
TRIALS               200
ACCURACY             0.001
CHECKFREQ            2
MAXCHECK             10
UNBALANCED           STOP                
PATTERN              1                   
DEMAND MULTIPLIER    1
EMITTER EXPONENT     0.5
QUALITY              NONE                
DIFFUSIVITY          1
TOLERANCE            0.01

[COORDINATES]
;Node      X-Coord    Y-Coord   
R_RES               0.000000000        700.000000000
J_A1_entry          0.000000000        500.000000000
T_residential          0.000000000        400.000000000
T_hospital        500.000000000        400.000000000
T_industrial          0.000000000        100.000000000
T_commercial        500.000000000          0.000000000
J_A1                0.000000000        500.000000000
J_B1              100.000000000        500.000000000
J_B2              100.000000000        400.000000000
J_C2              200.000000000        400.000000000
J_D2              300.000000000        400.000000000
J_E2              400.000000000        400.000000000
J_B3              100.000000000        300.000000000
J_B4              100.000000000        200.000000000
J_B5              100.000000000        100.000000000
J_C5              200.000000000        100.000000000
J_D5              300.000000000        100.000000000
J_E5              400.000000000        100.000000000
J_E6              400.000000000          0.000000000

[VERTICES]
;Link      X-Coord    Y-Coord   

[LABELS]

[BACKDROP]
UNITS    NONE

[END]
